Route #1: 28 15 7 51
Route #2: 20 40 61 29 43 8 10
Route #3: 6 32 57 50 17 58 33 55
Route #4: 56 60 25 49 35 26 59
Route #5: 14 5 9 54 3 39 27 23 41 21 4 11 31 34
Route #6: 38 19 30 1 18 13 12 48 53
Route #7: 45 47 24 42 46
Route #8: 52 2 44 22 37 16 36
Cost 1289
Time 0.411069
Tempo = 0.42296750000241445